PROBLEM NAME: eil51_n17
KNAPSACK DATA TYPE: uncorrelated
DIMENSION: 17
NUMBER OF ITEMS: 16
CAPACITY OF KNAPSACK: 4590
MIN SPEED: 0.1
MAX SPEED: 1
RENTING RATIO: 7.11
EDGE_WEIGHT_TYPE: CEIL_2D
NODE_COORD_SECTION	(INDEX, X, Y):
1	52	64
2	40	30
3	17	63
4	17	33
5	13	13
6	42	57
7	8	52
8	43	67
9	58	27
10	38	46
11	46	10
12	32	22
13	59	15
14	5	64
15	39	10
16	32	39
17	48	28
ITEMS SECTION	(INDEX, PROFIT, WEIGHT, ASSIGNED NODE NUMBER):
1	928	539	8
2	813	354	3
3	790	280	14
4	773	586	7
5	682	337	4
6	652	486	5
7	488	354	12
8	477	851	15
9	393	17	11
10	353	938	13
11	264	58	9
12	245	675	17
13	242	954	2
14	234	355	16
15	225	696	10
16	111	936	6
